c colouring generated by benchmark framework
p edge 450 8169
v 1 9
v 2 10
v 3 11
v 4 5
v 5 13
v 6 5
v 7 12
v 8 9
v 9 4
v 10 11
v 11 12
v 12 14
v 13 3
v 14 3
v 15 12
v 16 8
v 17 13
v 18 3
v 19 6
v 20 1
v 21 10
v 22 14
v 23 10
v 24 1
v 25 0
v 26 0
v 27 0
v 28 3
v 29 1
v 30 9
v 31 2
v 32 14
v 33 9
v 34 15
v 35 9
v 36 1
v 37 15
v 38 13
v 39 8
v 40 11
v 41 11
v 42 6
v 43 6
v 44 10
v 45 15
v 46 1
v 47 14
v 48 3
v 49 15
v 50 8
v 51 7
v 52 14
v 53 7
v 54 8
v 55 14
v 56 5
v 57 0
v 58 8
v 59 13
v 60 13
v 61 9
v 62 1
v 63 15
v 64 4
v 65 5
v 66 11
v 67 1
v 68 5
v 69 14
v 70 5
v 71 14
v 72 6
v 73 10
v 74 0
v 75 0
v 76 1
v 77 5
v 78 13
v 79 9
v 80 9
v 81 15
v 82 13
v 83 9
v 84 9
v 85 4
v 86 13
v 87 14
v 88 11
v 89 6
v 90 9
v 91 14
v 92 10
v 93 9
v 94 3
v 95 2
v 96 11
v 97 8
v 98 8
v 99 8
v 100 11
v 101 12
v 102 5
v 103 0
v 104 5
v 105 14
v 106 0
v 107 8
v 108 11
v 109 14
v 110 11
v 111 15
v 112 7
v 113 12
v 114 9
v 115 12
v 116 2
v 117 8
v 118 2
v 119 4
v 120 0
v 121 0
v 122 8
v 123 3
v 124 4
v 125 7
v 126 4
v 127 10
v 128 10
v 129 2
v 130 0
v 131 2
v 132 10
v 133 12
v 134 6
v 135 15
v 136 8
v 137 0
v 138 4
v 139 15
v 140 1
v 141 14
v 142 13
v 143 2
v 144 15
v 145 9
v 146 0
v 147 15
v 148 10
v 149 12
v 150 5
v 151 2
v 152 1
v 153 13
v 154 5
v 155 12
v 156 2
v 157 2
v 158 2
v 159 8
v 160 12
v 161 3
v 162 12
v 163 0
v 164 4
v 165 6
v 166 6
v 167 14
v 168 3
v 169 0
v 170 7
v 171 14
v 172 10
v 173 1
v 174 4
v 175 11
v 176 15
v 177 1
v 178 14
v 179 4
v 180 10
v 181 11
v 182 7
v 183 8
v 184 9
v 185 1
v 186 0
v 187 13
v 188 4
v 189 8
v 190 6
v 191 9
v 192 14
v 193 1
v 194 6
v 195 7
v 196 8
v 197 14
v 198 13
v 199 6
v 200 4
v 201 5
v 202 7
v 203 4
v 204 2
v 205 0
v 206 12
v 207 5
v 208 11
v 209 5
v 210 7
v 211 2
v 212 13
v 213 3
v 214 12
v 215 0
v 216 4
v 217 3
v 218 13
v 219 13
v 220 13
v 221 1
v 222 0
v 223 13
v 224 2
v 225 6
v 226 14
v 227 12
v 228 8
v 229 5
v 230 3
v 231 11
v 232 7
v 233 5
v 234 2
v 235 7
v 236 8
v 237 0
v 238 5
v 239 6
v 240 11
v 241 8
v 242 5
v 243 4
v 244 0
v 245 13
v 246 14
v 247 0
v 248 10
v 249 3
v 250 8
v 251 1
v 252 6
v 253 14
v 254 3
v 255 9
v 256 12
v 257 8
v 258 3
v 259 5
v 260 2
v 261 10
v 262 15
v 263 13
v 264 4
v 265 14
v 266 5
v 267 15
v 268 11
v 269 4
v 270 7
v 271 7
v 272 15
v 273 2
v 274 15
v 275 15
v 276 12
v 277 9
v 278 8
v 279 8
v 280 11
v 281 6
v 282 14
v 283 6
v 284 3
v 285 14
v 286 2
v 287 12
v 288 10
v 289 3
v 290 1
v 291 8
v 292 10
v 293 3
v 294 10
v 295 5
v 296 6
v 297 0
v 298 7
v 299 4
v 300 4
v 301 2
v 302 3
v 303 14
v 304 2
v 305 11
v 306 8
v 307 6
v 308 4
v 309 3
v 310 4
v 311 7
v 312 7
v 313 12
v 314 12
v 315 0
v 316 1
v 317 7
v 318 1
v 319 4
v 320 13
v 321 12
v 322 9
v 323 2
v 324 10
v 325 5
v 326 7
v 327 9
v 328 13
v 329 6
v 330 13
v 331 8
v 332 13
v 333 14
v 334 12
v 335 2
v 336 5
v 337 7
v 338 10
v 339 9
v 340 4
v 341 0
v 342 11
v 343 2
v 344 8
v 345 10
v 346 2
v 347 2
v 348 8
v 349 3
v 350 4
v 351 5
v 352 6
v 353 6
v 354 14
v 355 1
v 356 1
v 357 9
v 358 15
v 359 4
v 360 14
v 361 1
v 362 12
v 363 10
v 364 3
v 365 11
v 366 11
v 367 4
v 368 3
v 369 8
v 370 15
v 371 7
v 372 15
v 373 15
v 374 6
v 375 11
v 376 0
v 377 5
v 378 3
v 379 15
v 380 10
v 381 2
v 382 9
v 383 6
v 384 1
v 385 0
v 386 3
v 387 10
v 388 4
v 389 5
v 390 7
v 391 14
v 392 7
v 393 3
v 394 11
v 395 10
v 396 4
v 397 10
v 398 10
v 399 9
v 400 9
v 401 12
v 402 10
v 403 2
v 404 15
v 405 0
v 406 3
v 407 14
v 408 1
v 409 2
v 410 4
v 411 14
v 412 7
v 413 6
v 414 5
v 415 2
v 416 12
v 417 9
v 418 7
v 419 1
v 420 1
v 421 11
v 422 12
v 423 11
v 424 14
v 425 10
v 426 15
v 427 5
v 428 4
v 429 6
v 430 8
v 431 14
v 432 5
v 433 6
v 434 14
v 435 7
v 436 3
v 437 12
v 438 14
v 439 2
v 440 12
v 441 11
v 442 1
v 443 11
v 444 13
v 445 8
v 446 1
v 447 12
v 448 2
v 449 13
v 450 5
